&CONTROL
    calculation = 'cp'
    restart_mode = 'from_scratch'
    tstress = .true.
    tprnfor = .true.
    outdir = '{{ JOB_WORK_DIR }}'
    prefix = 'cp'
    pseudo_dir = '{{ JOB_WORK_DIR }}/pseudo'
    nstep = 100
    iprint = 1
    dt = 0.1
/
&SYSTEM
    ibrav = 0
    nat = 4
    ntyp = 2
    ecutwfc = 50
    ecutrho = 200
    nr1b = 20
    nr2b = 20
    nr3b = 20
/
&ELECTRONS
    electron_dynamics = 'verlet'
    electron_velocities = 'zero'
    emass = 400
!! consider the below parameters if orthogonalization fails
!   orthogonalization = 'ortho'
!   ortho_eps = 1d-11
/
&IONS
    ion_dynamics = 'verlet'
    ion_velocities = 'zero'
    tempw = 300
/
&CELL
/
ATOMIC_SPECIES
Fe 55.845 Fe.pbe-spn-rrkjus_psl.1.0.0.UPF
O 15.999 O.pbe-n-rrkjus_psl.1.0.0.UPF

ATOMIC_POSITIONS crystalFe     0.000000000    0.000000000    0.000000000
Fe     0.500000000    0.500000000    0.500000000
O      0.250000000    0.250000000    0.250000000
O      0.750000000    0.750000000    0.750000000

CELL_PARAMETERS angstrom
   5.000000000    0.000000000    0.000000000
   0.000000000    5.000000000    0.000000000
   0.000000000    0.000000000    5.000000000
