&control
    calculation = 'md'
    verbosity = 'low'
    restart_mode = 'from_scratch'
    wf_collect = .true.
    tstress = .true.
    tprnfor = .true.
    outdir = '{{ JOB_WORK_DIR }}/outdir'
    wfcdir = '{{ JOB_WORK_DIR }}/outdir'
    prefix = '__prefix__'
    pseudo_dir = '{{ JOB_WORK_DIR }}/pseudo'
!   1 a.u. = 0.048378 fs, 20 a.u. ~ 1 fs, dt unit is different in pw.x and cp.x
    dt = 20
    nstep = 100
/

&system
    ibrav = 0
    nat = 4
    ntyp = 2
    ecutwfc = 50
    ecutrho = 200
    nosym = .true.
/

&electrons
    conv_thr = 1e-8
/

&ions
    pot_extrapolation = 'second-order'
    wfc_extrapolation = 'second-order'
    ion_temperature = 'initial'
    tempw = 300
/

ATOMIC_SPECIES
Fe 55.845 Fe.pbe-spn-rrkjus_psl.1.0.0.UPF
O 15.999 O.pbe-n-rrkjus_psl.1.0.0.UPF


ATOMIC_POSITIONS crystal
Fe     0.000000000    0.000000000    0.000000000 0 1 1
Fe     0.500000000    0.500000000    0.500000000 1 1 1
O      0.250000000    0.250000000    0.250000000 1 1 1
O      0.750000000    0.750000000    0.750000000 1 1 1


CELL_PARAMETERS angstrom
   5.000000000    0.000000000    0.000000000
   0.000000000    5.000000000    0.000000000
   0.000000000    0.000000000    5.000000000

K_POINTS gamma
